num_vertices = 875;
num_edges = 2250;
edges = {
    <1, 2>,
    <1, 6>,
    <1, 26>,
    <2, 3>,
    <2, 7>,
    <2, 27>,
    <3, 4>,
    <3, 8>,
    <3, 28>,
    <4, 5>,
    <4, 9>,
    <4, 29>,
    <5, 10>,
    <5, 30>,
    <6, 7>,
    <6, 11>,
    <6, 31>,
    <7, 8>,
    <7, 12>,
    <7, 32>,
    <8, 9>,
    <8, 13>,
    <8, 33>,
    <9, 10>,
    <9, 14>,
    <9, 34>,
    <10, 15>,
    <10, 35>,
    <11, 12>,
    <11, 16>,
    <11, 36>,
    <12, 13>,
    <12, 17>,
    <12, 37>,
    <13, 14>,
    <13, 18>,
    <13, 38>,
    <14, 15>,
    <14, 19>,
    <14, 39>,
    <15, 20>,
    <15, 40>,
    <16, 17>,
    <16, 21>,
    <16, 41>,
    <17, 18>,
    <17, 22>,
    <17, 42>,
    <18, 19>,
    <18, 23>,
    <18, 43>,
    <19, 20>,
    <19, 24>,
    <19, 44>,
    <20, 25>,
    <20, 45>,
    <21, 22>,
    <21, 46>,
    <22, 23>,
    <22, 47>,
    <23, 24>,
    <23, 48>,
    <24, 25>,
    <24, 49>,
    <25, 50>,
    <26, 27>,
    <26, 31>,
    <26, 51>,
    <27, 28>,
    <27, 32>,
    <27, 52>,
    <28, 29>,
    <28, 33>,
    <28, 53>,
    <29, 30>,
    <29, 34>,
    <29, 54>,
    <30, 35>,
    <30, 55>,
    <31, 32>,
    <31, 36>,
    <31, 56>,
    <32, 33>,
    <32, 37>,
    <32, 57>,
    <33, 34>,
    <33, 38>,
    <33, 58>,
    <34, 35>,
    <34, 39>,
    <34, 59>,
    <35, 40>,
    <35, 60>,
    <36, 37>,
    <36, 41>,
    <36, 61>,
    <37, 38>,
    <37, 42>,
    <37, 62>,
    <38, 39>,
    <38, 43>,
    <38, 63>,
    <39, 40>,
    <39, 44>,
    <39, 64>,
    <40, 45>,
    <40, 65>,
    <41, 42>,
    <41, 46>,
    <41, 66>,
    <42, 43>,
    <42, 47>,
    <42, 67>,
    <43, 44>,
    <43, 48>,
    <43, 68>,
    <44, 45>,
    <44, 49>,
    <44, 69>,
    <45, 50>,
    <45, 70>,
    <46, 47>,
    <46, 71>,
    <47, 48>,
    <47, 72>,
    <48, 49>,
    <48, 73>,
    <49, 50>,
    <49, 74>,
    <50, 75>,
    <51, 52>,
    <51, 56>,
    <51, 76>,
    <52, 53>,
    <52, 57>,
    <52, 77>,
    <53, 54>,
    <53, 58>,
    <53, 78>,
    <54, 55>,
    <54, 59>,
    <54, 79>,
    <55, 60>,
    <55, 80>,
    <56, 57>,
    <56, 61>,
    <56, 81>,
    <57, 58>,
    <57, 62>,
    <57, 82>,
    <58, 59>,
    <58, 63>,
    <58, 83>,
    <59, 60>,
    <59, 64>,
    <59, 84>,
    <60, 65>,
    <60, 85>,
    <61, 62>,
    <61, 66>,
    <61, 86>,
    <62, 63>,
    <62, 67>,
    <62, 87>,
    <63, 64>,
    <63, 68>,
    <63, 88>,
    <64, 65>,
    <64, 69>,
    <64, 89>,
    <65, 70>,
    <65, 90>,
    <66, 67>,
    <66, 71>,
    <66, 91>,
    <67, 68>,
    <67, 72>,
    <67, 92>,
    <68, 69>,
    <68, 73>,
    <68, 93>,
    <69, 70>,
    <69, 74>,
    <69, 94>,
    <70, 75>,
    <70, 95>,
    <71, 72>,
    <71, 96>,
    <72, 73>,
    <72, 97>,
    <73, 74>,
    <73, 98>,
    <74, 75>,
    <74, 99>,
    <75, 100>,
    <76, 77>,
    <76, 81>,
    <76, 101>,
    <77, 78>,
    <77, 82>,
    <77, 102>,
    <78, 79>,
    <78, 83>,
    <78, 103>,
    <79, 80>,
    <79, 84>,
    <79, 104>,
    <80, 85>,
    <80, 105>,
    <81, 82>,
    <81, 86>,
    <81, 106>,
    <82, 83>,
    <82, 87>,
    <82, 107>,
    <83, 84>,
    <83, 88>,
    <83, 108>,
    <84, 85>,
    <84, 89>,
    <84, 109>,
    <85, 90>,
    <85, 110>,
    <86, 87>,
    <86, 91>,
    <86, 111>,
    <87, 88>,
    <87, 92>,
    <87, 112>,
    <88, 89>,
    <88, 93>,
    <88, 113>,
    <89, 90>,
    <89, 94>,
    <89, 114>,
    <90, 95>,
    <90, 115>,
    <91, 92>,
    <91, 96>,
    <91, 116>,
    <92, 93>,
    <92, 97>,
    <92, 117>,
    <93, 94>,
    <93, 98>,
    <93, 118>,
    <94, 95>,
    <94, 99>,
    <94, 119>,
    <95, 100>,
    <95, 120>,
    <96, 97>,
    <96, 121>,
    <97, 98>,
    <97, 122>,
    <98, 99>,
    <98, 123>,
    <99, 100>,
    <99, 124>,
    <100, 125>,
    <101, 102>,
    <101, 106>,
    <101, 126>,
    <102, 103>,
    <102, 107>,
    <102, 127>,
    <103, 104>,
    <103, 108>,
    <103, 128>,
    <104, 105>,
    <104, 109>,
    <104, 129>,
    <105, 110>,
    <105, 130>,
    <106, 107>,
    <106, 111>,
    <106, 131>,
    <107, 108>,
    <107, 112>,
    <107, 132>,
    <108, 109>,
    <108, 113>,
    <108, 133>,
    <109, 110>,
    <109, 114>,
    <109, 134>,
    <110, 115>,
    <110, 135>,
    <111, 112>,
    <111, 116>,
    <111, 136>,
    <112, 113>,
    <112, 117>,
    <112, 137>,
    <113, 114>,
    <113, 118>,
    <113, 138>,
    <114, 115>,
    <114, 119>,
    <114, 139>,
    <115, 120>,
    <115, 140>,
    <116, 117>,
    <116, 121>,
    <116, 141>,
    <117, 118>,
    <117, 122>,
    <117, 142>,
    <118, 119>,
    <118, 123>,
    <118, 143>,
    <119, 120>,
    <119, 124>,
    <119, 144>,
    <120, 125>,
    <120, 145>,
    <121, 122>,
    <121, 146>,
    <122, 123>,
    <122, 147>,
    <123, 124>,
    <123, 148>,
    <124, 125>,
    <124, 149>,
    <125, 150>,
    <126, 127>,
    <126, 131>,
    <126, 151>,
    <127, 128>,
    <127, 132>,
    <127, 152>,
    <128, 129>,
    <128, 133>,
    <128, 153>,
    <129, 130>,
    <129, 134>,
    <129, 154>,
    <130, 135>,
    <130, 155>,
    <131, 132>,
    <131, 136>,
    <131, 156>,
    <132, 133>,
    <132, 137>,
    <132, 157>,
    <133, 134>,
    <133, 138>,
    <133, 158>,
    <134, 135>,
    <134, 139>,
    <134, 159>,
    <135, 140>,
    <135, 160>,
    <136, 137>,
    <136, 141>,
    <136, 161>,
    <137, 138>,
    <137, 142>,
    <137, 162>,
    <138, 139>,
    <138, 143>,
    <138, 163>,
    <139, 140>,
    <139, 144>,
    <139, 164>,
    <140, 145>,
    <140, 165>,
    <141, 142>,
    <141, 146>,
    <141, 166>,
    <142, 143>,
    <142, 147>,
    <142, 167>,
    <143, 144>,
    <143, 148>,
    <143, 168>,
    <144, 145>,
    <144, 149>,
    <144, 169>,
    <145, 150>,
    <145, 170>,
    <146, 147>,
    <146, 171>,
    <147, 148>,
    <147, 172>,
    <148, 149>,
    <148, 173>,
    <149, 150>,
    <149, 174>,
    <150, 175>,
    <151, 152>,
    <151, 156>,
    <151, 176>,
    <152, 153>,
    <152, 157>,
    <152, 177>,
    <153, 154>,
    <153, 158>,
    <153, 178>,
    <154, 155>,
    <154, 159>,
    <154, 179>,
    <155, 160>,
    <155, 180>,
    <156, 157>,
    <156, 161>,
    <156, 181>,
    <157, 158>,
    <157, 162>,
    <157, 182>,
    <158, 159>,
    <158, 163>,
    <158, 183>,
    <159, 160>,
    <159, 164>,
    <159, 184>,
    <160, 165>,
    <160, 185>,
    <161, 162>,
    <161, 166>,
    <161, 186>,
    <162, 163>,
    <162, 167>,
    <162, 187>,
    <163, 164>,
    <163, 168>,
    <163, 188>,
    <164, 165>,
    <164, 169>,
    <164, 189>,
    <165, 170>,
    <165, 190>,
    <166, 167>,
    <166, 171>,
    <166, 191>,
    <167, 168>,
    <167, 172>,
    <167, 192>,
    <168, 169>,
    <168, 173>,
    <168, 193>,
    <169, 170>,
    <169, 174>,
    <169, 194>,
    <170, 175>,
    <170, 195>,
    <171, 172>,
    <171, 196>,
    <172, 173>,
    <172, 197>,
    <173, 174>,
    <173, 198>,
    <174, 175>,
    <174, 199>,
    <175, 200>,
    <176, 177>,
    <176, 181>,
    <176, 201>,
    <177, 178>,
    <177, 182>,
    <177, 202>,
    <178, 179>,
    <178, 183>,
    <178, 203>,
    <179, 180>,
    <179, 184>,
    <179, 204>,
    <180, 185>,
    <180, 205>,
    <181, 182>,
    <181, 186>,
    <181, 206>,
    <182, 183>,
    <182, 187>,
    <182, 207>,
    <183, 184>,
    <183, 188>,
    <183, 208>,
    <184, 185>,
    <184, 189>,
    <184, 209>,
    <185, 190>,
    <185, 210>,
    <186, 187>,
    <186, 191>,
    <186, 211>,
    <187, 188>,
    <187, 192>,
    <187, 212>,
    <188, 189>,
    <188, 193>,
    <188, 213>,
    <189, 190>,
    <189, 194>,
    <189, 214>,
    <190, 195>,
    <190, 215>,
    <191, 192>,
    <191, 196>,
    <191, 216>,
    <192, 193>,
    <192, 197>,
    <192, 217>,
    <193, 194>,
    <193, 198>,
    <193, 218>,
    <194, 195>,
    <194, 199>,
    <194, 219>,
    <195, 200>,
    <195, 220>,
    <196, 197>,
    <196, 221>,
    <197, 198>,
    <197, 222>,
    <198, 199>,
    <198, 223>,
    <199, 200>,
    <199, 224>,
    <200, 225>,
    <201, 202>,
    <201, 206>,
    <201, 226>,
    <202, 203>,
    <202, 207>,
    <202, 227>,
    <203, 204>,
    <203, 208>,
    <203, 228>,
    <204, 205>,
    <204, 209>,
    <204, 229>,
    <205, 210>,
    <205, 230>,
    <206, 207>,
    <206, 211>,
    <206, 231>,
    <207, 208>,
    <207, 212>,
    <207, 232>,
    <208, 209>,
    <208, 213>,
    <208, 233>,
    <209, 210>,
    <209, 214>,
    <209, 234>,
    <210, 215>,
    <210, 235>,
    <211, 212>,
    <211, 216>,
    <211, 236>,
    <212, 213>,
    <212, 217>,
    <212, 237>,
    <213, 214>,
    <213, 218>,
    <213, 238>,
    <214, 215>,
    <214, 219>,
    <214, 239>,
    <215, 220>,
    <215, 240>,
    <216, 217>,
    <216, 221>,
    <216, 241>,
    <217, 218>,
    <217, 222>,
    <217, 242>,
    <218, 219>,
    <218, 223>,
    <218, 243>,
    <219, 220>,
    <219, 224>,
    <219, 244>,
    <220, 225>,
    <220, 245>,
    <221, 222>,
    <221, 246>,
    <222, 223>,
    <222, 247>,
    <223, 224>,
    <223, 248>,
    <224, 225>,
    <224, 249>,
    <225, 250>,
    <226, 227>,
    <226, 231>,
    <226, 251>,
    <227, 228>,
    <227, 232>,
    <227, 252>,
    <228, 229>,
    <228, 233>,
    <228, 253>,
    <229, 230>,
    <229, 234>,
    <229, 254>,
    <230, 235>,
    <230, 255>,
    <231, 232>,
    <231, 236>,
    <231, 256>,
    <232, 233>,
    <232, 237>,
    <232, 257>,
    <233, 234>,
    <233, 238>,
    <233, 258>,
    <234, 235>,
    <234, 239>,
    <234, 259>,
    <235, 240>,
    <235, 260>,
    <236, 237>,
    <236, 241>,
    <236, 261>,
    <237, 238>,
    <237, 242>,
    <237, 262>,
    <238, 239>,
    <238, 243>,
    <238, 263>,
    <239, 240>,
    <239, 244>,
    <239, 264>,
    <240, 245>,
    <240, 265>,
    <241, 242>,
    <241, 246>,
    <241, 266>,
    <242, 243>,
    <242, 247>,
    <242, 267>,
    <243, 244>,
    <243, 248>,
    <243, 268>,
    <244, 245>,
    <244, 249>,
    <244, 269>,
    <245, 250>,
    <245, 270>,
    <246, 247>,
    <246, 271>,
    <247, 248>,
    <247, 272>,
    <248, 249>,
    <248, 273>,
    <249, 250>,
    <249, 274>,
    <250, 275>,
    <251, 252>,
    <251, 256>,
    <251, 276>,
    <252, 253>,
    <252, 257>,
    <252, 277>,
    <253, 254>,
    <253, 258>,
    <253, 278>,
    <254, 255>,
    <254, 259>,
    <254, 279>,
    <255, 260>,
    <255, 280>,
    <256, 257>,
    <256, 261>,
    <256, 281>,
    <257, 258>,
    <257, 262>,
    <257, 282>,
    <258, 259>,
    <258, 263>,
    <258, 283>,
    <259, 260>,
    <259, 264>,
    <259, 284>,
    <260, 265>,
    <260, 285>,
    <261, 262>,
    <261, 266>,
    <261, 286>,
    <262, 263>,
    <262, 267>,
    <262, 287>,
    <263, 264>,
    <263, 268>,
    <263, 288>,
    <264, 265>,
    <264, 269>,
    <264, 289>,
    <265, 270>,
    <265, 290>,
    <266, 267>,
    <266, 271>,
    <266, 291>,
    <267, 268>,
    <267, 272>,
    <267, 292>,
    <268, 269>,
    <268, 273>,
    <268, 293>,
    <269, 270>,
    <269, 274>,
    <269, 294>,
    <270, 275>,
    <270, 295>,
    <271, 272>,
    <271, 296>,
    <272, 273>,
    <272, 297>,
    <273, 274>,
    <273, 298>,
    <274, 275>,
    <274, 299>,
    <275, 300>,
    <276, 277>,
    <276, 281>,
    <276, 301>,
    <277, 278>,
    <277, 282>,
    <277, 302>,
    <278, 279>,
    <278, 283>,
    <278, 303>,
    <279, 280>,
    <279, 284>,
    <279, 304>,
    <280, 285>,
    <280, 305>,
    <281, 282>,
    <281, 286>,
    <281, 306>,
    <282, 283>,
    <282, 287>,
    <282, 307>,
    <283, 284>,
    <283, 288>,
    <283, 308>,
    <284, 285>,
    <284, 289>,
    <284, 309>,
    <285, 290>,
    <285, 310>,
    <286, 287>,
    <286, 291>,
    <286, 311>,
    <287, 288>,
    <287, 292>,
    <287, 312>,
    <288, 289>,
    <288, 293>,
    <288, 313>,
    <289, 290>,
    <289, 294>,
    <289, 314>,
    <290, 295>,
    <290, 315>,
    <291, 292>,
    <291, 296>,
    <291, 316>,
    <292, 293>,
    <292, 297>,
    <292, 317>,
    <293, 294>,
    <293, 298>,
    <293, 318>,
    <294, 295>,
    <294, 299>,
    <294, 319>,
    <295, 300>,
    <295, 320>,
    <296, 297>,
    <296, 321>,
    <297, 298>,
    <297, 322>,
    <298, 299>,
    <298, 323>,
    <299, 300>,
    <299, 324>,
    <300, 325>,
    <301, 302>,
    <301, 306>,
    <301, 326>,
    <302, 303>,
    <302, 307>,
    <302, 327>,
    <303, 304>,
    <303, 308>,
    <303, 328>,
    <304, 305>,
    <304, 309>,
    <304, 329>,
    <305, 310>,
    <305, 330>,
    <306, 307>,
    <306, 311>,
    <306, 331>,
    <307, 308>,
    <307, 312>,
    <307, 332>,
    <308, 309>,
    <308, 313>,
    <308, 333>,
    <309, 310>,
    <309, 314>,
    <309, 334>,
    <310, 315>,
    <310, 335>,
    <311, 312>,
    <311, 316>,
    <311, 336>,
    <312, 313>,
    <312, 317>,
    <312, 337>,
    <313, 314>,
    <313, 318>,
    <313, 338>,
    <314, 315>,
    <314, 319>,
    <314, 339>,
    <315, 320>,
    <315, 340>,
    <316, 317>,
    <316, 321>,
    <316, 341>,
    <317, 318>,
    <317, 322>,
    <317, 342>,
    <318, 319>,
    <318, 323>,
    <318, 343>,
    <319, 320>,
    <319, 324>,
    <319, 344>,
    <320, 325>,
    <320, 345>,
    <321, 322>,
    <321, 346>,
    <322, 323>,
    <322, 347>,
    <323, 324>,
    <323, 348>,
    <324, 325>,
    <324, 349>,
    <325, 350>,
    <326, 327>,
    <326, 331>,
    <326, 351>,
    <327, 328>,
    <327, 332>,
    <327, 352>,
    <328, 329>,
    <328, 333>,
    <328, 353>,
    <329, 330>,
    <329, 334>,
    <329, 354>,
    <330, 335>,
    <330, 355>,
    <331, 332>,
    <331, 336>,
    <331, 356>,
    <332, 333>,
    <332, 337>,
    <332, 357>,
    <333, 334>,
    <333, 338>,
    <333, 358>,
    <334, 335>,
    <334, 339>,
    <334, 359>,
    <335, 340>,
    <335, 360>,
    <336, 337>,
    <336, 341>,
    <336, 361>,
    <337, 338>,
    <337, 342>,
    <337, 362>,
    <338, 339>,
    <338, 343>,
    <338, 363>,
    <339, 340>,
    <339, 344>,
    <339, 364>,
    <340, 345>,
    <340, 365>,
    <341, 342>,
    <341, 346>,
    <341, 366>,
    <342, 343>,
    <342, 347>,
    <342, 367>,
    <343, 344>,
    <343, 348>,
    <343, 368>,
    <344, 345>,
    <344, 349>,
    <344, 369>,
    <345, 350>,
    <345, 370>,
    <346, 347>,
    <346, 371>,
    <347, 348>,
    <347, 372>,
    <348, 349>,
    <348, 373>,
    <349, 350>,
    <349, 374>,
    <350, 375>,
    <351, 352>,
    <351, 356>,
    <351, 376>,
    <352, 353>,
    <352, 357>,
    <352, 377>,
    <353, 354>,
    <353, 358>,
    <353, 378>,
    <354, 355>,
    <354, 359>,
    <354, 379>,
    <355, 360>,
    <355, 380>,
    <356, 357>,
    <356, 361>,
    <356, 381>,
    <357, 358>,
    <357, 362>,
    <357, 382>,
    <358, 359>,
    <358, 363>,
    <358, 383>,
    <359, 360>,
    <359, 364>,
    <359, 384>,
    <360, 365>,
    <360, 385>,
    <361, 362>,
    <361, 366>,
    <361, 386>,
    <362, 363>,
    <362, 367>,
    <362, 387>,
    <363, 364>,
    <363, 368>,
    <363, 388>,
    <364, 365>,
    <364, 369>,
    <364, 389>,
    <365, 370>,
    <365, 390>,
    <366, 367>,
    <366, 371>,
    <366, 391>,
    <367, 368>,
    <367, 372>,
    <367, 392>,
    <368, 369>,
    <368, 373>,
    <368, 393>,
    <369, 370>,
    <369, 374>,
    <369, 394>,
    <370, 375>,
    <370, 395>,
    <371, 372>,
    <371, 396>,
    <372, 373>,
    <372, 397>,
    <373, 374>,
    <373, 398>,
    <374, 375>,
    <374, 399>,
    <375, 400>,
    <376, 377>,
    <376, 381>,
    <376, 401>,
    <377, 378>,
    <377, 382>,
    <377, 402>,
    <378, 379>,
    <378, 383>,
    <378, 403>,
    <379, 380>,
    <379, 384>,
    <379, 404>,
    <380, 385>,
    <380, 405>,
    <381, 382>,
    <381, 386>,
    <381, 406>,
    <382, 383>,
    <382, 387>,
    <382, 407>,
    <383, 384>,
    <383, 388>,
    <383, 408>,
    <384, 385>,
    <384, 389>,
    <384, 409>,
    <385, 390>,
    <385, 410>,
    <386, 387>,
    <386, 391>,
    <386, 411>,
    <387, 388>,
    <387, 392>,
    <387, 412>,
    <388, 389>,
    <388, 393>,
    <388, 413>,
    <389, 390>,
    <389, 394>,
    <389, 414>,
    <390, 395>,
    <390, 415>,
    <391, 392>,
    <391, 396>,
    <391, 416>,
    <392, 393>,
    <392, 397>,
    <392, 417>,
    <393, 394>,
    <393, 398>,
    <393, 418>,
    <394, 395>,
    <394, 399>,
    <394, 419>,
    <395, 400>,
    <395, 420>,
    <396, 397>,
    <396, 421>,
    <397, 398>,
    <397, 422>,
    <398, 399>,
    <398, 423>,
    <399, 400>,
    <399, 424>,
    <400, 425>,
    <401, 402>,
    <401, 406>,
    <401, 426>,
    <402, 403>,
    <402, 407>,
    <402, 427>,
    <403, 404>,
    <403, 408>,
    <403, 428>,
    <404, 405>,
    <404, 409>,
    <404, 429>,
    <405, 410>,
    <405, 430>,
    <406, 407>,
    <406, 411>,
    <406, 431>,
    <407, 408>,
    <407, 412>,
    <407, 432>,
    <408, 409>,
    <408, 413>,
    <408, 433>,
    <409, 410>,
    <409, 414>,
    <409, 434>,
    <410, 415>,
    <410, 435>,
    <411, 412>,
    <411, 416>,
    <411, 436>,
    <412, 413>,
    <412, 417>,
    <412, 437>,
    <413, 414>,
    <413, 418>,
    <413, 438>,
    <414, 415>,
    <414, 419>,
    <414, 439>,
    <415, 420>,
    <415, 440>,
    <416, 417>,
    <416, 421>,
    <416, 441>,
    <417, 418>,
    <417, 422>,
    <417, 442>,
    <418, 419>,
    <418, 423>,
    <418, 443>,
    <419, 420>,
    <419, 424>,
    <419, 444>,
    <420, 425>,
    <420, 445>,
    <421, 422>,
    <421, 446>,
    <422, 423>,
    <422, 447>,
    <423, 424>,
    <423, 448>,
    <424, 425>,
    <424, 449>,
    <425, 450>,
    <426, 427>,
    <426, 431>,
    <426, 451>,
    <427, 428>,
    <427, 432>,
    <427, 452>,
    <428, 429>,
    <428, 433>,
    <428, 453>,
    <429, 430>,
    <429, 434>,
    <429, 454>,
    <430, 435>,
    <430, 455>,
    <431, 432>,
    <431, 436>,
    <431, 456>,
    <432, 433>,
    <432, 437>,
    <432, 457>,
    <433, 434>,
    <433, 438>,
    <433, 458>,
    <434, 435>,
    <434, 439>,
    <434, 459>,
    <435, 440>,
    <435, 460>,
    <436, 437>,
    <436, 441>,
    <436, 461>,
    <437, 438>,
    <437, 442>,
    <437, 462>,
    <438, 439>,
    <438, 443>,
    <438, 463>,
    <439, 440>,
    <439, 444>,
    <439, 464>,
    <440, 445>,
    <440, 465>,
    <441, 442>,
    <441, 446>,
    <441, 466>,
    <442, 443>,
    <442, 447>,
    <442, 467>,
    <443, 444>,
    <443, 448>,
    <443, 468>,
    <444, 445>,
    <444, 449>,
    <444, 469>,
    <445, 450>,
    <445, 470>,
    <446, 447>,
    <446, 471>,
    <447, 448>,
    <447, 472>,
    <448, 449>,
    <448, 473>,
    <449, 450>,
    <449, 474>,
    <450, 475>,
    <451, 452>,
    <451, 456>,
    <451, 476>,
    <452, 453>,
    <452, 457>,
    <452, 477>,
    <453, 454>,
    <453, 458>,
    <453, 478>,
    <454, 455>,
    <454, 459>,
    <454, 479>,
    <455, 460>,
    <455, 480>,
    <456, 457>,
    <456, 461>,
    <456, 481>,
    <457, 458>,
    <457, 462>,
    <457, 482>,
    <458, 459>,
    <458, 463>,
    <458, 483>,
    <459, 460>,
    <459, 464>,
    <459, 484>,
    <460, 465>,
    <460, 485>,
    <461, 462>,
    <461, 466>,
    <461, 486>,
    <462, 463>,
    <462, 467>,
    <462, 487>,
    <463, 464>,
    <463, 468>,
    <463, 488>,
    <464, 465>,
    <464, 469>,
    <464, 489>,
    <465, 470>,
    <465, 490>,
    <466, 467>,
    <466, 471>,
    <466, 491>,
    <467, 468>,
    <467, 472>,
    <467, 492>,
    <468, 469>,
    <468, 473>,
    <468, 493>,
    <469, 470>,
    <469, 474>,
    <469, 494>,
    <470, 475>,
    <470, 495>,
    <471, 472>,
    <471, 496>,
    <472, 473>,
    <472, 497>,
    <473, 474>,
    <473, 498>,
    <474, 475>,
    <474, 499>,
    <475, 500>,
    <476, 477>,
    <476, 481>,
    <476, 501>,
    <477, 478>,
    <477, 482>,
    <477, 502>,
    <478, 479>,
    <478, 483>,
    <478, 503>,
    <479, 480>,
    <479, 484>,
    <479, 504>,
    <480, 485>,
    <480, 505>,
    <481, 482>,
    <481, 486>,
    <481, 506>,
    <482, 483>,
    <482, 487>,
    <482, 507>,
    <483, 484>,
    <483, 488>,
    <483, 508>,
    <484, 485>,
    <484, 489>,
    <484, 509>,
    <485, 490>,
    <485, 510>,
    <486, 487>,
    <486, 491>,
    <486, 511>,
    <487, 488>,
    <487, 492>,
    <487, 512>,
    <488, 489>,
    <488, 493>,
    <488, 513>,
    <489, 490>,
    <489, 494>,
    <489, 514>,
    <490, 495>,
    <490, 515>,
    <491, 492>,
    <491, 496>,
    <491, 516>,
    <492, 493>,
    <492, 497>,
    <492, 517>,
    <493, 494>,
    <493, 498>,
    <493, 518>,
    <494, 495>,
    <494, 499>,
    <494, 519>,
    <495, 500>,
    <495, 520>,
    <496, 497>,
    <496, 521>,
    <497, 498>,
    <497, 522>,
    <498, 499>,
    <498, 523>,
    <499, 500>,
    <499, 524>,
    <500, 525>,
    <501, 502>,
    <501, 506>,
    <501, 526>,
    <502, 503>,
    <502, 507>,
    <502, 527>,
    <503, 504>,
    <503, 508>,
    <503, 528>,
    <504, 505>,
    <504, 509>,
    <504, 529>,
    <505, 510>,
    <505, 530>,
    <506, 507>,
    <506, 511>,
    <506, 531>,
    <507, 508>,
    <507, 512>,
    <507, 532>,
    <508, 509>,
    <508, 513>,
    <508, 533>,
    <509, 510>,
    <509, 514>,
    <509, 534>,
    <510, 515>,
    <510, 535>,
    <511, 512>,
    <511, 516>,
    <511, 536>,
    <512, 513>,
    <512, 517>,
    <512, 537>,
    <513, 514>,
    <513, 518>,
    <513, 538>,
    <514, 515>,
    <514, 519>,
    <514, 539>,
    <515, 520>,
    <515, 540>,
    <516, 517>,
    <516, 521>,
    <516, 541>,
    <517, 518>,
    <517, 522>,
    <517, 542>,
    <518, 519>,
    <518, 523>,
    <518, 543>,
    <519, 520>,
    <519, 524>,
    <519, 544>,
    <520, 525>,
    <520, 545>,
    <521, 522>,
    <521, 546>,
    <522, 523>,
    <522, 547>,
    <523, 524>,
    <523, 548>,
    <524, 525>,
    <524, 549>,
    <525, 550>,
    <526, 527>,
    <526, 531>,
    <526, 551>,
    <527, 528>,
    <527, 532>,
    <527, 552>,
    <528, 529>,
    <528, 533>,
    <528, 553>,
    <529, 530>,
    <529, 534>,
    <529, 554>,
    <530, 535>,
    <530, 555>,
    <531, 532>,
    <531, 536>,
    <531, 556>,
    <532, 533>,
    <532, 537>,
    <532, 557>,
    <533, 534>,
    <533, 538>,
    <533, 558>,
    <534, 535>,
    <534, 539>,
    <534, 559>,
    <535, 540>,
    <535, 560>,
    <536, 537>,
    <536, 541>,
    <536, 561>,
    <537, 538>,
    <537, 542>,
    <537, 562>,
    <538, 539>,
    <538, 543>,
    <538, 563>,
    <539, 540>,
    <539, 544>,
    <539, 564>,
    <540, 545>,
    <540, 565>,
    <541, 542>,
    <541, 546>,
    <541, 566>,
    <542, 543>,
    <542, 547>,
    <542, 567>,
    <543, 544>,
    <543, 548>,
    <543, 568>,
    <544, 545>,
    <544, 549>,
    <544, 569>,
    <545, 550>,
    <545, 570>,
    <546, 547>,
    <546, 571>,
    <547, 548>,
    <547, 572>,
    <548, 549>,
    <548, 573>,
    <549, 550>,
    <549, 574>,
    <550, 575>,
    <551, 552>,
    <551, 556>,
    <551, 576>,
    <552, 553>,
    <552, 557>,
    <552, 577>,
    <553, 554>,
    <553, 558>,
    <553, 578>,
    <554, 555>,
    <554, 559>,
    <554, 579>,
    <555, 560>,
    <555, 580>,
    <556, 557>,
    <556, 561>,
    <556, 581>,
    <557, 558>,
    <557, 562>,
    <557, 582>,
    <558, 559>,
    <558, 563>,
    <558, 583>,
    <559, 560>,
    <559, 564>,
    <559, 584>,
    <560, 565>,
    <560, 585>,
    <561, 562>,
    <561, 566>,
    <561, 586>,
    <562, 563>,
    <562, 567>,
    <562, 587>,
    <563, 564>,
    <563, 568>,
    <563, 588>,
    <564, 565>,
    <564, 569>,
    <564, 589>,
    <565, 570>,
    <565, 590>,
    <566, 567>,
    <566, 571>,
    <566, 591>,
    <567, 568>,
    <567, 572>,
    <567, 592>,
    <568, 569>,
    <568, 573>,
    <568, 593>,
    <569, 570>,
    <569, 574>,
    <569, 594>,
    <570, 575>,
    <570, 595>,
    <571, 572>,
    <571, 596>,
    <572, 573>,
    <572, 597>,
    <573, 574>,
    <573, 598>,
    <574, 575>,
    <574, 599>,
    <575, 600>,
    <576, 577>,
    <576, 581>,
    <576, 601>,
    <577, 578>,
    <577, 582>,
    <577, 602>,
    <578, 579>,
    <578, 583>,
    <578, 603>,
    <579, 580>,
    <579, 584>,
    <579, 604>,
    <580, 585>,
    <580, 605>,
    <581, 582>,
    <581, 586>,
    <581, 606>,
    <582, 583>,
    <582, 587>,
    <582, 607>,
    <583, 584>,
    <583, 588>,
    <583, 608>,
    <584, 585>,
    <584, 589>,
    <584, 609>,
    <585, 590>,
    <585, 610>,
    <586, 587>,
    <586, 591>,
    <586, 611>,
    <587, 588>,
    <587, 592>,
    <587, 612>,
    <588, 589>,
    <588, 593>,
    <588, 613>,
    <589, 590>,
    <589, 594>,
    <589, 614>,
    <590, 595>,
    <590, 615>,
    <591, 592>,
    <591, 596>,
    <591, 616>,
    <592, 593>,
    <592, 597>,
    <592, 617>,
    <593, 594>,
    <593, 598>,
    <593, 618>,
    <594, 595>,
    <594, 599>,
    <594, 619>,
    <595, 600>,
    <595, 620>,
    <596, 597>,
    <596, 621>,
    <597, 598>,
    <597, 622>,
    <598, 599>,
    <598, 623>,
    <599, 600>,
    <599, 624>,
    <600, 625>,
    <601, 602>,
    <601, 606>,
    <601, 626>,
    <602, 603>,
    <602, 607>,
    <602, 627>,
    <603, 604>,
    <603, 608>,
    <603, 628>,
    <604, 605>,
    <604, 609>,
    <604, 629>,
    <605, 610>,
    <605, 630>,
    <606, 607>,
    <606, 611>,
    <606, 631>,
    <607, 608>,
    <607, 612>,
    <607, 632>,
    <608, 609>,
    <608, 613>,
    <608, 633>,
    <609, 610>,
    <609, 614>,
    <609, 634>,
    <610, 615>,
    <610, 635>,
    <611, 612>,
    <611, 616>,
    <611, 636>,
    <612, 613>,
    <612, 617>,
    <612, 637>,
    <613, 614>,
    <613, 618>,
    <613, 638>,
    <614, 615>,
    <614, 619>,
    <614, 639>,
    <615, 620>,
    <615, 640>,
    <616, 617>,
    <616, 621>,
    <616, 641>,
    <617, 618>,
    <617, 622>,
    <617, 642>,
    <618, 619>,
    <618, 623>,
    <618, 643>,
    <619, 620>,
    <619, 624>,
    <619, 644>,
    <620, 625>,
    <620, 645>,
    <621, 622>,
    <621, 646>,
    <622, 623>,
    <622, 647>,
    <623, 624>,
    <623, 648>,
    <624, 625>,
    <624, 649>,
    <625, 650>,
    <626, 627>,
    <626, 631>,
    <626, 651>,
    <627, 628>,
    <627, 632>,
    <627, 652>,
    <628, 629>,
    <628, 633>,
    <628, 653>,
    <629, 630>,
    <629, 634>,
    <629, 654>,
    <630, 635>,
    <630, 655>,
    <631, 632>,
    <631, 636>,
    <631, 656>,
    <632, 633>,
    <632, 637>,
    <632, 657>,
    <633, 634>,
    <633, 638>,
    <633, 658>,
    <634, 635>,
    <634, 639>,
    <634, 659>,
    <635, 640>,
    <635, 660>,
    <636, 637>,
    <636, 641>,
    <636, 661>,
    <637, 638>,
    <637, 642>,
    <637, 662>,
    <638, 639>,
    <638, 643>,
    <638, 663>,
    <639, 640>,
    <639, 644>,
    <639, 664>,
    <640, 645>,
    <640, 665>,
    <641, 642>,
    <641, 646>,
    <641, 666>,
    <642, 643>,
    <642, 647>,
    <642, 667>,
    <643, 644>,
    <643, 648>,
    <643, 668>,
    <644, 645>,
    <644, 649>,
    <644, 669>,
    <645, 650>,
    <645, 670>,
    <646, 647>,
    <646, 671>,
    <647, 648>,
    <647, 672>,
    <648, 649>,
    <648, 673>,
    <649, 650>,
    <649, 674>,
    <650, 675>,
    <651, 652>,
    <651, 656>,
    <651, 676>,
    <652, 653>,
    <652, 657>,
    <652, 677>,
    <653, 654>,
    <653, 658>,
    <653, 678>,
    <654, 655>,
    <654, 659>,
    <654, 679>,
    <655, 660>,
    <655, 680>,
    <656, 657>,
    <656, 661>,
    <656, 681>,
    <657, 658>,
    <657, 662>,
    <657, 682>,
    <658, 659>,
    <658, 663>,
    <658, 683>,
    <659, 660>,
    <659, 664>,
    <659, 684>,
    <660, 665>,
    <660, 685>,
    <661, 662>,
    <661, 666>,
    <661, 686>,
    <662, 663>,
    <662, 667>,
    <662, 687>,
    <663, 664>,
    <663, 668>,
    <663, 688>,
    <664, 665>,
    <664, 669>,
    <664, 689>,
    <665, 670>,
    <665, 690>,
    <666, 667>,
    <666, 671>,
    <666, 691>,
    <667, 668>,
    <667, 672>,
    <667, 692>,
    <668, 669>,
    <668, 673>,
    <668, 693>,
    <669, 670>,
    <669, 674>,
    <669, 694>,
    <670, 675>,
    <670, 695>,
    <671, 672>,
    <671, 696>,
    <672, 673>,
    <672, 697>,
    <673, 674>,
    <673, 698>,
    <674, 675>,
    <674, 699>,
    <675, 700>,
    <676, 677>,
    <676, 681>,
    <676, 701>,
    <677, 678>,
    <677, 682>,
    <677, 702>,
    <678, 679>,
    <678, 683>,
    <678, 703>,
    <679, 680>,
    <679, 684>,
    <679, 704>,
    <680, 685>,
    <680, 705>,
    <681, 682>,
    <681, 686>,
    <681, 706>,
    <682, 683>,
    <682, 687>,
    <682, 707>,
    <683, 684>,
    <683, 688>,
    <683, 708>,
    <684, 685>,
    <684, 689>,
    <684, 709>,
    <685, 690>,
    <685, 710>,
    <686, 687>,
    <686, 691>,
    <686, 711>,
    <687, 688>,
    <687, 692>,
    <687, 712>,
    <688, 689>,
    <688, 693>,
    <688, 713>,
    <689, 690>,
    <689, 694>,
    <689, 714>,
    <690, 695>,
    <690, 715>,
    <691, 692>,
    <691, 696>,
    <691, 716>,
    <692, 693>,
    <692, 697>,
    <692, 717>,
    <693, 694>,
    <693, 698>,
    <693, 718>,
    <694, 695>,
    <694, 699>,
    <694, 719>,
    <695, 700>,
    <695, 720>,
    <696, 697>,
    <696, 721>,
    <697, 698>,
    <697, 722>,
    <698, 699>,
    <698, 723>,
    <699, 700>,
    <699, 724>,
    <700, 725>,
    <701, 702>,
    <701, 706>,
    <701, 726>,
    <702, 703>,
    <702, 707>,
    <702, 727>,
    <703, 704>,
    <703, 708>,
    <703, 728>,
    <704, 705>,
    <704, 709>,
    <704, 729>,
    <705, 710>,
    <705, 730>,
    <706, 707>,
    <706, 711>,
    <706, 731>,
    <707, 708>,
    <707, 712>,
    <707, 732>,
    <708, 709>,
    <708, 713>,
    <708, 733>,
    <709, 710>,
    <709, 714>,
    <709, 734>,
    <710, 715>,
    <710, 735>,
    <711, 712>,
    <711, 716>,
    <711, 736>,
    <712, 713>,
    <712, 717>,
    <712, 737>,
    <713, 714>,
    <713, 718>,
    <713, 738>,
    <714, 715>,
    <714, 719>,
    <714, 739>,
    <715, 720>,
    <715, 740>,
    <716, 717>,
    <716, 721>,
    <716, 741>,
    <717, 718>,
    <717, 722>,
    <717, 742>,
    <718, 719>,
    <718, 723>,
    <718, 743>,
    <719, 720>,
    <719, 724>,
    <719, 744>,
    <720, 725>,
    <720, 745>,
    <721, 722>,
    <721, 746>,
    <722, 723>,
    <722, 747>,
    <723, 724>,
    <723, 748>,
    <724, 725>,
    <724, 749>,
    <725, 750>,
    <726, 727>,
    <726, 731>,
    <726, 751>,
    <727, 728>,
    <727, 732>,
    <727, 752>,
    <728, 729>,
    <728, 733>,
    <728, 753>,
    <729, 730>,
    <729, 734>,
    <729, 754>,
    <730, 735>,
    <730, 755>,
    <731, 732>,
    <731, 736>,
    <731, 756>,
    <732, 733>,
    <732, 737>,
    <732, 757>,
    <733, 734>,
    <733, 738>,
    <733, 758>,
    <734, 735>,
    <734, 739>,
    <734, 759>,
    <735, 740>,
    <735, 760>,
    <736, 737>,
    <736, 741>,
    <736, 761>,
    <737, 738>,
    <737, 742>,
    <737, 762>,
    <738, 739>,
    <738, 743>,
    <738, 763>,
    <739, 740>,
    <739, 744>,
    <739, 764>,
    <740, 745>,
    <740, 765>,
    <741, 742>,
    <741, 746>,
    <741, 766>,
    <742, 743>,
    <742, 747>,
    <742, 767>,
    <743, 744>,
    <743, 748>,
    <743, 768>,
    <744, 745>,
    <744, 749>,
    <744, 769>,
    <745, 750>,
    <745, 770>,
    <746, 747>,
    <746, 771>,
    <747, 748>,
    <747, 772>,
    <748, 749>,
    <748, 773>,
    <749, 750>,
    <749, 774>,
    <750, 775>,
    <751, 752>,
    <751, 756>,
    <751, 776>,
    <752, 753>,
    <752, 757>,
    <752, 777>,
    <753, 754>,
    <753, 758>,
    <753, 778>,
    <754, 755>,
    <754, 759>,
    <754, 779>,
    <755, 760>,
    <755, 780>,
    <756, 757>,
    <756, 761>,
    <756, 781>,
    <757, 758>,
    <757, 762>,
    <757, 782>,
    <758, 759>,
    <758, 763>,
    <758, 783>,
    <759, 760>,
    <759, 764>,
    <759, 784>,
    <760, 765>,
    <760, 785>,
    <761, 762>,
    <761, 766>,
    <761, 786>,
    <762, 763>,
    <762, 767>,
    <762, 787>,
    <763, 764>,
    <763, 768>,
    <763, 788>,
    <764, 765>,
    <764, 769>,
    <764, 789>,
    <765, 770>,
    <765, 790>,
    <766, 767>,
    <766, 771>,
    <766, 791>,
    <767, 768>,
    <767, 772>,
    <767, 792>,
    <768, 769>,
    <768, 773>,
    <768, 793>,
    <769, 770>,
    <769, 774>,
    <769, 794>,
    <770, 775>,
    <770, 795>,
    <771, 772>,
    <771, 796>,
    <772, 773>,
    <772, 797>,
    <773, 774>,
    <773, 798>,
    <774, 775>,
    <774, 799>,
    <775, 800>,
    <776, 777>,
    <776, 781>,
    <776, 801>,
    <777, 778>,
    <777, 782>,
    <777, 802>,
    <778, 779>,
    <778, 783>,
    <778, 803>,
    <779, 780>,
    <779, 784>,
    <779, 804>,
    <780, 785>,
    <780, 805>,
    <781, 782>,
    <781, 786>,
    <781, 806>,
    <782, 783>,
    <782, 787>,
    <782, 807>,
    <783, 784>,
    <783, 788>,
    <783, 808>,
    <784, 785>,
    <784, 789>,
    <784, 809>,
    <785, 790>,
    <785, 810>,
    <786, 787>,
    <786, 791>,
    <786, 811>,
    <787, 788>,
    <787, 792>,
    <787, 812>,
    <788, 789>,
    <788, 793>,
    <788, 813>,
    <789, 790>,
    <789, 794>,
    <789, 814>,
    <790, 795>,
    <790, 815>,
    <791, 792>,
    <791, 796>,
    <791, 816>,
    <792, 793>,
    <792, 797>,
    <792, 817>,
    <793, 794>,
    <793, 798>,
    <793, 818>,
    <794, 795>,
    <794, 799>,
    <794, 819>,
    <795, 800>,
    <795, 820>,
    <796, 797>,
    <796, 821>,
    <797, 798>,
    <797, 822>,
    <798, 799>,
    <798, 823>,
    <799, 800>,
    <799, 824>,
    <800, 825>,
    <801, 802>,
    <801, 806>,
    <801, 826>,
    <802, 803>,
    <802, 807>,
    <802, 827>,
    <803, 804>,
    <803, 808>,
    <803, 828>,
    <804, 805>,
    <804, 809>,
    <804, 829>,
    <805, 810>,
    <805, 830>,
    <806, 807>,
    <806, 811>,
    <806, 831>,
    <807, 808>,
    <807, 812>,
    <807, 832>,
    <808, 809>,
    <808, 813>,
    <808, 833>,
    <809, 810>,
    <809, 814>,
    <809, 834>,
    <810, 815>,
    <810, 835>,
    <811, 812>,
    <811, 816>,
    <811, 836>,
    <812, 813>,
    <812, 817>,
    <812, 837>,
    <813, 814>,
    <813, 818>,
    <813, 838>,
    <814, 815>,
    <814, 819>,
    <814, 839>,
    <815, 820>,
    <815, 840>,
    <816, 817>,
    <816, 821>,
    <816, 841>,
    <817, 818>,
    <817, 822>,
    <817, 842>,
    <818, 819>,
    <818, 823>,
    <818, 843>,
    <819, 820>,
    <819, 824>,
    <819, 844>,
    <820, 825>,
    <820, 845>,
    <821, 822>,
    <821, 846>,
    <822, 823>,
    <822, 847>,
    <823, 824>,
    <823, 848>,
    <824, 825>,
    <824, 849>,
    <825, 850>,
    <826, 827>,
    <826, 831>,
    <826, 851>,
    <827, 828>,
    <827, 832>,
    <827, 852>,
    <828, 829>,
    <828, 833>,
    <828, 853>,
    <829, 830>,
    <829, 834>,
    <829, 854>,
    <830, 835>,
    <830, 855>,
    <831, 832>,
    <831, 836>,
    <831, 856>,
    <832, 833>,
    <832, 837>,
    <832, 857>,
    <833, 834>,
    <833, 838>,
    <833, 858>,
    <834, 835>,
    <834, 839>,
    <834, 859>,
    <835, 840>,
    <835, 860>,
    <836, 837>,
    <836, 841>,
    <836, 861>,
    <837, 838>,
    <837, 842>,
    <837, 862>,
    <838, 839>,
    <838, 843>,
    <838, 863>,
    <839, 840>,
    <839, 844>,
    <839, 864>,
    <840, 845>,
    <840, 865>,
    <841, 842>,
    <841, 846>,
    <841, 866>,
    <842, 843>,
    <842, 847>,
    <842, 867>,
    <843, 844>,
    <843, 848>,
    <843, 868>,
    <844, 845>,
    <844, 849>,
    <844, 869>,
    <845, 850>,
    <845, 870>,
    <846, 847>,
    <846, 871>,
    <847, 848>,
    <847, 872>,
    <848, 849>,
    <848, 873>,
    <849, 850>,
    <849, 874>,
    <850, 875>,
    <851, 852>,
    <851, 856>,
    <852, 853>,
    <852, 857>,
    <853, 854>,
    <853, 858>,
    <854, 855>,
    <854, 859>,
    <855, 860>,
    <856, 857>,
    <856, 861>,
    <857, 858>,
    <857, 862>,
    <858, 859>,
    <858, 863>,
    <859, 860>,
    <859, 864>,
    <860, 865>,
    <861, 862>,
    <861, 866>,
    <862, 863>,
    <862, 867>,
    <863, 864>,
    <863, 868>,
    <864, 865>,
    <864, 869>,
    <865, 870>,
    <866, 867>,
    <866, 871>,
    <867, 868>,
    <867, 872>,
    <868, 869>,
    <868, 873>,
    <869, 870>,
    <869, 874>,
    <870, 875>,
    <871, 872>,
    <872, 873>,
    <873, 874>,
    <874, 875>
};
